decision_x1=[0,4];
decision_x2=[0,4];
decision_x3=[0,4];
decision_x4=[0,4];
decision_x5=[0,4];
decision_x6=[0,4];
decision_x7=[0,4];
decision_x8=[0,4];
decision_x9=[0,4];
decision_x10=[0,4];
random_y2=[0,4];
random_y3=[0,4];
random_y4=[0,4];
random_y5=[0,4];
random_y6=[0,4];
random_y7=[0,4];
random_y8=[0,4];
random_y9=[0,4];
random_y10=[0,4];
random_y1=[0,4];
constraint_x2_x1=[
0,0,67|
0,1,82|
0,2,4.6|
0,3,90|
0,4,6.7|
1,0,7.5|
1,1,51|
1,2,29|
1,3,70|
1,4,82|
2,0,40|
2,1,43|
2,2,17|
2,3,38|
2,4,29|
3,0,57|
3,1,94|
3,2,3.5|
3,3,18|
3,4,66|
4,0,2.1|
4,1,92|
4,2,86|
4,3,40|
4,4,59|
];
constraint_x3_x1=[
0,0,46|
0,1,52|
0,2,62|
0,3,95|
0,4,33|
1,0,97|
1,1,83|
1,2,85|
1,3,18|
1,4,97|
2,0,2.8|
2,1,16|
2,2,25|
2,3,96|
2,4,90|
3,0,36|
3,1,42|
3,2,95|
3,3,47|
3,4,68|
4,0,1e+02|
4,1,17|
4,2,4.9|
4,3,40|
4,4,88|
];
constraint_x4_x2=[
0,0,69|
0,1,45|
0,2,88|
0,3,2.2|
0,4,67|
1,0,70|
1,1,66|
1,2,43|
1,3,1.8|
1,4,22|
2,0,85|
2,1,48|
2,2,23|
2,3,37|
2,4,88|
3,0,54|
3,1,41|
3,2,6.1|
3,3,1e+02|
3,4,38|
4,0,66|
4,1,98|
4,2,2.1|
4,3,70|
4,4,57|
];
constraint_x5_x1=[
0,0,26|
0,1,31|
0,2,62|
0,3,26|
0,4,20|
1,0,54|
1,1,60|
1,2,40|
1,3,72|
1,4,24|
2,0,25|
2,1,24|
2,2,13|
2,3,11|
2,4,25|
3,0,65|
3,1,20|
3,2,56|
3,3,80|
3,4,21|
4,0,82|
4,1,1e+02|
4,2,62|
4,3,33|
4,4,6.7|
];
constraint_x6_x2=[
0,0,23|
0,1,98|
0,2,88|
0,3,68|
0,4,73|
1,0,13|
1,1,80|
1,2,79|
1,3,50|
1,4,60|
2,0,46|
2,1,49|
2,2,67|
2,3,61|
2,4,33|
3,0,93|
3,1,93|
3,2,48|
3,3,31|
3,4,31|
4,0,59|
4,1,65|
4,2,89|
4,3,99|
4,4,58|
];
constraint_x6_x3=[
0,0,12|
0,1,84|
0,2,26|
0,3,67|
0,4,47|
1,0,43|
1,1,94|
1,2,60|
1,3,73|
1,4,64|
2,0,47|
2,1,11|
2,2,81|
2,3,71|
2,4,58|
3,0,22|
3,1,29|
3,2,3.4|
3,3,87|
3,4,50|
4,0,32|
4,1,99|
4,2,88|
4,3,90|
4,4,76|
];
constraint_x6_x4=[
0,0,66|
0,1,31|
0,2,86|
0,3,4.6|
0,4,20|
1,0,33|
1,1,38|
1,2,59|
1,3,72|
1,4,80|
2,0,43|
2,1,74|
2,2,26|
2,3,44|
2,4,43|
3,0,58|
3,1,60|
3,2,14|
3,3,24|
3,4,21|
4,0,22|
4,1,65|
4,2,31|
4,3,82|
4,4,84|
];
constraint_x6_x5=[
0,0,32|
0,1,64|
0,2,6.7|
0,3,2.8|
0,4,73|
1,0,62|
1,1,26|
1,2,84|
1,3,62|
1,4,33|
2,0,57|
2,1,89|
2,2,87|
2,3,37|
2,4,28|
3,0,40|
3,1,10|
3,2,14|
3,3,45|
3,4,64|
4,0,28|
4,1,88|
4,2,97|
4,3,31|
4,4,39|
];
constraint_x7_x3=[
0,0,46|
0,1,88|
0,2,91|
0,3,0.74|
0,4,62|
1,0,86|
1,1,53|
1,2,64|
1,3,75|
1,4,30|
2,0,39|
2,1,39|
2,2,79|
2,3,97|
2,4,72|
3,0,78|
3,1,0.74|
3,2,1.2|
3,3,76|
3,4,38|
4,0,58|
4,1,19|
4,2,42|
4,3,62|
4,4,75|
];
constraint_x7_x5=[
0,0,88|
0,1,49|
0,2,45|
0,3,91|
0,4,90|
1,0,18|
1,1,87|
1,2,6.9|
1,3,60|
1,4,68|
2,0,49|
2,1,56|
2,2,91|
2,3,90|
2,4,98|
3,0,46|
3,1,5.6|
3,2,41|
3,3,84|
3,4,79|
4,0,28|
4,1,16|
4,2,55|
4,3,53|
4,4,25|
];
constraint_x7_x6=[
0,0,88|
0,1,4.1|
0,2,95|
0,3,75|
0,4,5|
1,0,55|
1,1,28|
1,2,84|
1,3,76|
1,4,33|
2,0,23|
2,1,1e+02|
2,2,95|
2,3,37|
2,4,30|
3,0,96|
3,1,75|
3,2,57|
3,3,3.7|
3,4,43|
4,0,52|
4,1,87|
4,2,1e+02|
4,3,78|
4,4,6|
];
constraint_x8_x2=[
0,0,46|
0,1,6.2|
0,2,87|
0,3,50|
0,4,12|
1,0,88|
1,1,80|
1,2,37|
1,3,63|
1,4,90|
2,0,97|
2,1,68|
2,2,39|
2,3,55|
2,4,99|
3,0,19|
3,1,8.6|
3,2,85|
3,3,15|
3,4,65|
4,0,58|
4,1,58|
4,2,76|
4,3,29|
4,4,25|
];
constraint_x8_x4=[
0,0,88|
0,1,16|
0,2,84|
0,3,82|
0,4,81|
1,0,70|
1,1,88|
1,2,15|
1,3,94|
1,4,8.6|
2,0,5.2|
2,1,68|
2,2,53|
2,3,34|
2,4,80|
3,0,47|
3,1,28|
3,2,47|
3,3,56|
3,4,46|
4,0,63|
4,1,7.9|
4,2,41|
4,3,91|
4,4,69|
];
constraint_x8_x6=[
0,0,85|
0,1,43|
0,2,60|
0,3,87|
0,4,72|
1,0,15|
1,1,51|
1,2,49|
1,3,25|
1,4,95|
2,0,64|
2,1,1.9|
2,2,0.61|
2,3,9.5|
2,4,64|
3,0,4.6|
3,1,62|
3,2,40|
3,3,85|
3,4,3.5|
4,0,30|
4,1,71|
4,2,58|
4,3,93|
4,4,47|
];
constraint_x8_x7=[
0,0,93|
0,1,36|
0,2,55|
0,3,52|
0,4,39|
1,0,5.9|
1,1,88|
1,2,61|
1,3,67|
1,4,92|
2,0,12|
2,1,95|
2,2,15|
2,3,6|
2,4,36|
3,0,86|
3,1,31|
3,2,33|
3,3,58|
3,4,30|
4,0,31|
4,1,11|
4,2,94|
4,3,49|
4,4,54|
];
constraint_x9_x3=[
0,0,73|
0,1,19|
0,2,48|
0,3,47|
0,4,54|
1,0,11|
1,1,9.5|
1,2,31|
1,3,65|
1,4,97|
2,0,3.7|
2,1,24|
2,2,28|
2,3,55|
2,4,5.5|
3,0,10|
3,1,62|
3,2,39|
3,3,73|
3,4,8.2|
4,0,41|
4,1,16|
4,2,88|
4,3,56|
4,4,83|
];
constraint_x9_x4=[
0,0,38|
0,1,87|
0,2,14|
0,3,54|
0,4,84|
1,0,66|
1,1,2.3|
1,2,76|
1,3,46|
1,4,71|
2,0,0.063|
2,1,51|
2,2,88|
2,3,17|
2,4,83|
3,0,63|
3,1,99|
3,2,13|
3,3,46|
3,4,94|
4,0,57|
4,1,26|
4,2,66|
4,3,28|
4,4,45|
];
constraint_x9_x5=[
0,0,40|
0,1,53|
0,2,29|
0,3,72|
0,4,87|
1,0,96|
1,1,49|
1,2,46|
1,3,1.2|
1,4,74|
2,0,63|
2,1,74|
2,2,73|
2,3,11|
2,4,93|
3,0,27|
3,1,82|
3,2,63|
3,3,13|
3,4,67|
4,0,84|
4,1,74|
4,2,13|
4,3,83|
4,4,95|
];
constraint_x9_x7=[
0,0,52|
0,1,48|
0,2,97|
0,3,41|
0,4,42|
1,0,68|
1,1,41|
1,2,41|
1,3,93|
1,4,41|
2,0,74|
2,1,86|
2,2,79|
2,3,3.5|
2,4,75|
3,0,15|
3,1,32|
3,2,7.5|
3,3,13|
3,4,96|
4,0,96|
4,1,63|
4,2,90|
4,3,65|
4,4,37|
];
constraint_x10_x1=[
0,0,23|
0,1,39|
0,2,80|
0,3,37|
0,4,51|
1,0,6.3|
1,1,16|
1,2,52|
1,3,43|
1,4,1.8|
2,0,80|
2,1,10|
2,2,86|
2,3,42|
2,4,94|
3,0,66|
3,1,17|
3,2,32|
3,3,42|
3,4,33|
4,0,74|
4,1,55|
4,2,80|
4,3,33|
4,4,8.3|
];
constraint_x10_x4=[
0,0,75|
0,1,43|
0,2,88|
0,3,86|
0,4,78|
1,0,90|
1,1,91|
1,2,36|
1,3,42|
1,4,87|
2,0,34|
2,1,40|
2,2,23|
2,3,60|
2,4,28|
3,0,76|
3,1,15|
3,2,67|
3,3,41|
3,4,4.8|
4,0,90|
4,1,2.2|
4,2,30|
4,3,64|
4,4,93|
];
constraint_x10_x6=[
0,0,56|
0,1,38|
0,2,55|
0,3,47|
0,4,30|
1,0,66|
1,1,30|
1,2,63|
1,3,5.5|
1,4,69|
2,0,30|
2,1,83|
2,2,58|
2,3,46|
2,4,60|
3,0,7.4|
3,1,58|
3,2,24|
3,3,33|
3,4,37|
4,0,70|
4,1,98|
4,2,16|
4,3,36|
4,4,29|
];
constraint_x10_x8=[
0,0,55|
0,1,18|
0,2,35|
0,3,95|
0,4,3.7|
1,0,48|
1,1,40|
1,2,23|
1,3,43|
1,4,19|
2,0,82|
2,1,29|
2,2,69|
2,3,97|
2,4,88|
3,0,57|
3,1,47|
3,2,11|
3,3,80|
3,4,11|
4,0,40|
4,1,50|
4,2,75|
4,3,64|
4,4,34|
];
constraint_x2_y2=[
0,0,20|
0,1,20|
0,2,31|
0,3,88|
0,4,37|
1,0,81|
1,1,82|
1,2,78|
1,3,78|
1,4,55|
2,0,96|
2,1,7|
2,2,85|
2,3,4.2|
2,4,21|
3,0,53|
3,1,15|
3,2,33|
3,3,96|
3,4,17|
4,0,82|
4,1,1e+02|
4,2,22|
4,3,14|
4,4,60|
];
constraint_x3_y3=[
0,0,14|
0,1,94|
0,2,17|
0,3,84|
0,4,10|
1,0,78|
1,1,36|
1,2,29|
1,3,17|
1,4,68|
2,0,21|
2,1,76|
2,2,10|
2,3,47|
2,4,87|
3,0,88|
3,1,1.5|
3,2,77|
3,3,4.9|
3,4,53|
4,0,71|
4,1,40|
4,2,53|
4,3,64|
4,4,94|
];
constraint_x4_y4=[
0,0,9.2|
0,1,27|
0,2,59|
0,3,76|
0,4,0.21|
1,0,72|
1,1,96|
1,2,4.4|
1,3,80|
1,4,34|
2,0,37|
2,1,33|
2,2,25|
2,3,17|
2,4,35|
3,0,23|
3,1,84|
3,2,17|
3,3,49|
3,4,77|
4,0,84|
4,1,16|
4,2,68|
4,3,99|
4,4,21|
];
constraint_x5_y5=[
0,0,86|
0,1,22|
0,2,30|
0,3,17|
0,4,28|
1,0,4.5|
1,1,85|
1,2,93|
1,3,27|
1,4,8.6|
2,0,80|
2,1,80|
2,2,3|
2,3,94|
2,4,65|
3,0,64|
3,1,28|
3,2,28|
3,3,68|
3,4,80|
4,0,70|
4,1,41|
4,2,30|
4,3,53|
4,4,80|
];
constraint_x6_y6=[
0,0,0.81|
0,1,40|
0,2,61|
0,3,17|
0,4,73|
1,0,87|
1,1,7.6|
1,2,80|
1,3,2.3|
1,4,34|
2,0,3.1|
2,1,70|
2,2,78|
2,3,90|
2,4,86|
3,0,43|
3,1,28|
3,2,41|
3,3,18|
3,4,49|
4,0,99|
4,1,32|
4,2,39|
4,3,41|
4,4,98|
];
constraint_x7_y7=[
0,0,50|
0,1,81|
0,2,40|
0,3,42|
0,4,14|
1,0,89|
1,1,97|
1,2,21|
1,3,86|
1,4,0.24|
2,0,19|
2,1,82|
2,2,97|
2,3,51|
2,4,36|
3,0,65|
3,1,42|
3,2,37|
3,3,87|
3,4,50|
4,0,39|
4,1,17|
4,2,73|
4,3,70|
4,4,34|
];
constraint_x8_y8=[
0,0,88|
0,1,35|
0,2,51|
0,3,72|
0,4,28|
1,0,31|
1,1,5.4|
1,2,46|
1,3,78|
1,4,20|
2,0,21|
2,1,42|
2,2,67|
2,3,69|
2,4,11|
3,0,73|
3,1,24|
3,2,23|
3,3,13|
3,4,64|
4,0,53|
4,1,70|
4,2,48|
4,3,51|
4,4,6|
];
constraint_x9_y9=[
0,0,90|
0,1,81|
0,2,89|
0,3,84|
0,4,17|
1,0,21|
1,1,21|
1,2,81|
1,3,99|
1,4,24|
2,0,1e+02|
2,1,44|
2,2,74|
2,3,99|
2,4,35|
3,0,60|
3,1,62|
3,2,19|
3,3,79|
3,4,41|
4,0,78|
4,1,1.3|
4,2,77|
4,3,84|
4,4,78|
];
constraint_x10_y10=[
0,0,75|
0,1,96|
0,2,85|
0,3,0.42|
0,4,59|
1,0,62|
1,1,22|
1,2,64|
1,3,96|
1,4,50|
2,0,55|
2,1,53|
2,2,65|
2,3,95|
2,4,43|
3,0,51|
3,1,24|
3,2,95|
3,3,30|
3,4,33|
4,0,59|
4,1,92|
4,2,85|
4,3,36|
4,4,46|
];
constraint_x1_y1=[
0,0,45|
0,1,82|
0,2,94|
0,3,31|
0,4,84|
1,0,70|
1,1,34|
1,2,30|
1,3,48|
1,4,46|
2,0,33|
2,1,24|
2,2,93|
2,3,76|
2,4,41|
3,0,47|
3,1,43|
3,2,55|
3,3,26|
3,4,17|
4,0,18|
4,1,65|
4,2,59|
4,3,77|
4,4,85|
];
initial_distribution_y2=[0.22,0.24,0.22,0.13,0.19];
initial_distribution_y3=[0.047,0.11,0.16,0.21,0.47];
initial_distribution_y4=[0.073,0.008,0.39,0.24,0.28];
initial_distribution_y5=[0.11,0.34,0.12,0.015,0.42];
initial_distribution_y6=[0.26,0.23,0.14,0.17,0.2];
initial_distribution_y7=[0.16,0.23,0.36,0.054,0.19];
initial_distribution_y8=[0.26,0.086,0.12,0.28,0.25];
initial_distribution_y9=[0.36,0.27,0.16,0.19,0.011];
initial_distribution_y10=[0.11,0.27,0.24,0.19,0.19];
initial_distribution_y1=[0.33,0.22,0.085,0.36,0.012];
transition_y2=[
0.4,0.35,0.08,0.012,0.16|
0.15,0.28,0.29,0.23,0.055|
0.13,0.11,0.26,0.18,0.32|
0.24,0.27,0.13,0.13,0.23|
0.23,0.15,0.2,0.13,0.29|
];
transition_y3=[
0.21,0.1,0.25,0.12,0.32|
0.34,0.15,0.19,0.15,0.16|
0.23,0.28,0.081,0.2,0.21|
0.13,0.21,0.22,0.25,0.2|
0.12,0.19,0.28,0.16,0.24|
];
transition_y4=[
0.2,0.014,0.25,0.39,0.15|
0.3,0.31,0.045,0.28,0.058|
0.24,0.35,0.29,0.1,0.0052|
0.11,0.26,0.27,0.13,0.23|
0.34,0.35,0.12,0.093,0.11|
];
transition_y5=[
0.27,0.16,0.21,0.28,0.076|
0.1,0.046,0.28,0.25,0.32|
0.12,0.2,0.23,0.23,0.22|
0.24,0.3,0.013,0.18,0.27|
0.094,0.34,0.034,0.35,0.18|
];
transition_y6=[
0.28,0.26,0.18,0.097,0.19|
0.12,0.26,0.07,0.26,0.28|
0.41,0.13,0.14,0.076,0.24|
0.21,0.18,0.17,0.15,0.3|
0.22,0.11,0.21,0.17,0.29|
];
transition_y7=[
0.32,0.26,0.034,0.11,0.28|
0.39,0.089,0.19,0.11,0.22|
0.16,0.23,0.25,0.075,0.28|
0.23,0.019,0.3,0.12,0.33|
0.072,0.16,0.27,0.31,0.2|
];
transition_y8=[
0.11,0.12,0.17,0.37,0.23|
0.096,0.27,0.12,0.32,0.18|
0.17,0.039,0.39,0.34,0.056|
0.013,0.19,0.067,0.33,0.4|
0.11,0.18,0.26,0.23,0.21|
];
transition_y9=[
0.21,0.25,0.25,0.17,0.12|
0.39,0.19,0.1,0.2,0.13|
0.29,0.14,0.28,0.12,0.17|
0.048,0.19,0.21,0.22,0.33|
0.18,0.37,0.24,0.043,0.17|
];
transition_y10=[
0.32,0.021,0.22,0.19,0.25|
0.29,0.12,0.14,0.069,0.39|
0.033,0.29,0.27,0.16,0.25|
0.28,0.083,0.3,0.23,0.12|
0.023,0.43,0.34,0.065,0.14|
];
transition_y1=[
0.17,0.19,0.008,0.37,0.27|
0.07,0.28,0.16,0.2,0.28|
0.11,0.32,0.15,0.12,0.3|
0.3,0.2,0.28,0.012,0.21|
0.26,0.16,0.16,0.11,0.32|
];
